NAME diffusion_srl_ilp
* Max problem is converted into Min one
ROWS
 N  OBJ
 L  constraint1_3390
 L  constraint2_3390
 L  constraint2_3391
 L  constraint2_3392
 L  constraint2_3393
COLUMNS
    MARKER    'MARKER'                 'INTORG'
    Z_339_0_0  OBJ       -1.9710878353433416e-02
    Z_339_0_0  constraint1_3390  1
    Z_339_0_0  constraint2_3390  1
    Z_339_0_1  OBJ       -3.9455952906717620e-02
    Z_339_0_1  constraint1_3390  1
    Z_339_0_1  constraint2_3391  1
    Z_339_0_2  OBJ       -1.4648664837896774e-01
    Z_339_0_2  constraint1_3390  1
    Z_339_0_2  constraint2_3392  1
    Z_339_0_3  OBJ       -3.3087209932843503e-02
    Z_339_0_3  constraint1_3390  1
    Z_339_0_3  constraint2_3393  1
    MARKER    'MARKER'                 'INTEND'
RHS
    RHS1      constraint1_3390  1
    RHS1      constraint2_3390  1
    RHS1      constraint2_3391  1
    RHS1      constraint2_3392  1
    RHS1      constraint2_3393  1
BOUNDS
 UP BND1      Z_339_0_0  1
 UP BND1      Z_339_0_1  1
 UP BND1      Z_339_0_2  1
 UP BND1      Z_339_0_3  1
ENDATA
